(set-logic QF_S)
(declare-fun var0 () String)
(declare-fun var1 () Int)
(declare-fun var2 () Bool)
(declare-fun var3 () String)
(declare-fun var4 () Int)
(declare-fun var5 () Bool)
(declare-fun var6 () String)
(declare-fun var7 () Int)
(declare-fun var8 () Bool)
(assert (str.suffixof (str.replace var0 var6 var6) (str.at var6 var7)))
(assert (str.prefixof (str.substr (str.replace var3 var0 var3) (str.len var6) (str.indexof var6 var0 var7)) (str.substr (str.at var3 var4) (str.len var3) (str.indexof var6 var0 var1))))
(assert (>= (str.len var3) (str.indexof var6 var0 var4)))
(assert (<= (str.len var3) (str.indexof var3 var3 var7)))
(check-sat)